Tried aggregator 2 times.
MIP Presolve eliminated 8 rows and 8 columns.
Aggregator did 4 substitutions.
Reduced MIP has 105109 rows, 140148 columns, and 350364 nonzeros.
Reduced MIP has 35036 binaries, 0 generals, 0 SOSs, and 0 indicators.
Presolve time = 0.32 sec. (224.71 ticks)
Found incumbent of value 3163.763140 after 0.83 sec. (683.79 ticks)
Probing time = 0.16 sec. (6.64 ticks)
Tried aggregator 1 time.
Reduced MIP has 105109 rows, 140148 columns, and 350364 nonzeros.
Reduced MIP has 35036 binaries, 0 generals, 0 SOSs, and 0 indicators.
Presolve time = 0.48 sec. (189.93 ticks)
Probing time = 0.05 sec. (6.24 ticks)
MIP emphasis: balance optimality and feasibility.
MIP search method: dynamic search.
Parallel mode: deterministic, using up to 20 threads.
Root relaxation solution time = 1.64 sec. (1172.81 ticks)

        Nodes                                         Cuts/
   Node  Left     Objective  IInf  Best Integer    Best Bound    ItCnt     Gap

*     0+    0                         3163.7631   1.51952e+07              --- 
*     0+    0                       123621.2447   1.51952e+07              --- 
      0     0  5023376.0879   866   123621.2447  5023376.0879    13888     --- 
*     0+    0                      4888397.0534  5023376.0879             2.76%
*     0+    0                      4891466.6906  5023376.0879             2.70%
      0     0  5003183.2411   664  4891466.6906    Cuts: 3072    15079    2.28%
      0     0  5001316.3852   517  4891466.6906    Cuts: 2092    15897    2.25%
      0     0  4998749.9190   537  4891466.6906    Cuts: 1378    16561    2.19%
*     0+    0                      4892218.5739  4998749.9190             2.18%
      0     0  4986320.3944   415  4892218.5739    Cuts: 1405    17266    1.92%
      0     0  4983140.8026   313  4892218.5739     Cuts: 560    17542    1.86%
      0     0  4982340.9757   257  4892218.5739     Cuts: 250    17680    1.84%
*     0+    0                      4893084.1702  4982340.9757             1.82%
      0     0  4982237.0243   255  4893084.1702      Cuts: 56    17706    1.82%
      0     0  4982064.0755   231  4893084.1702      Cuts: 70    17737    1.82%
*     0+    0                      4896621.5451  4982064.0755             1.74%
      0     0  4981966.7585   233  4896621.5451      Cuts: 17    17748    1.74%
*     0+    0                      4959712.5039  4981966.7585             0.45%
*     0+    0                      4960572.0763  4981966.7585             0.43%
*     0+    0                      4960690.8308  4981966.7585             0.43%
      0     2  4981966.7585   233  4960690.8308  4981966.7585    17748    0.43%
Elapsed time = 13.91 sec. (9399.24 ticks, tree = 0.01 MB, solutions = 10)
      4     6  4981954.6904   233  4960690.8308  4981966.0433    17760    0.43%
      5     7  4981687.0976   232  4960690.8308  4981966.0433    17762    0.43%
      6     8  4981951.3881   233  4960690.8308  4981966.0433    17764    0.43%
      7     9  4981686.9750   235  4960690.8308  4981966.0433    17767    0.43%
      8    10  4981678.3300   232  4960690.8308  4981966.0433    17771    0.43%
      9    11  4981678.6705   232  4960690.8308  4981966.0433    17776    0.43%
     10    12  4981964.3023   237  4960690.8308  4981965.5083    17779    0.43%
     11    13  4981922.2845   233  4960690.8308  4981965.5083    17783    0.43%
     12    14  4981675.0295   232  4960690.8308  4981965.5083    17784    0.43%
     88    90  4981954.5853   236  4960690.8308  4981965.5083    17954    0.43%
Elapsed time = 15.64 sec. (10454.93 ticks, tree = 0.01 MB, solutions = 10)
    413   415  4981861.0975   230  4960690.8308  4981965.5083    18771    0.43%
    414   416  4981223.7755   225  4960690.8308  4981965.5083    18775    0.43%
    415   417  4981295.6385   224  4960690.8308  4981965.5083    18776    0.43%
    416   418  4981291.2388   224  4960690.8308  4981965.5083    18781    0.43%
    417   419  4981548.7456   226  4960690.8308  4981965.5083    18782    0.43%
    418   420  4981272.9639   225  4960690.8308  4981965.5083    18787    0.43%
    419   421  4981253.9332   225  4960690.8308  4981965.5083    18792    0.43%
    420   422  4981264.1962   225  4960690.8308  4981965.5083    18797    0.43%
    421   423  4981171.8780   225  4960690.8308  4981965.5083    18800    0.43%
    422   424  4981221.6138   227  4960690.8308  4981965.5083    18803    0.43%
Elapsed time = 18.12 sec. (11467.96 ticks, tree = 0.01 MB, solutions = 10)
    727   729  4980895.6367   224  4960690.8308  4981965.5083    19649    0.43%
    742   744  4980986.5805   223  4960690.8308  4981965.5083    19672    0.43%
    746   748  4981825.8289   228  4960690.8308  4981965.5083    19682    0.43%
    747   749  4981156.0121   225  4960690.8308  4981965.5083    19683    0.43%
    749   751  4981273.0037   224  4960690.8308  4981965.5083    19686    0.43%
    750   752  4981530.9207   225  4960690.8308  4981965.5083    19687    0.43%
    751   753  4981254.3818   223  4960690.8308  4981965.5083    19688    0.43%
    753   755  4981245.6142   223  4960690.8308  4981965.5083    19691    0.43%
    754   756  4981233.5859   225  4960690.8308  4981965.5083    19693    0.43%
    755   757  4981223.6855   224  4960690.8308  4981965.5083    19694    0.43%
Elapsed time = 20.97 sec. (12458.34 ticks, tree = 0.01 MB, solutions = 10)
    893   895  4981177.9560   225  4960690.8308  4981965.5083    19986    0.43%
    923   925  4981215.5865   224  4960690.8308  4981965.5083    20034    0.43%
    942   944  4981215.2136   224  4960690.8308  4981965.5083    20063    0.43%
    952   954  4981817.4776   228  4960690.8308  4981965.5083    20081    0.43%
    953   955  4981150.7649   225  4960690.8308  4981965.5083    20083    0.43%
    957   959  4981247.7352   223  4960690.8308  4981965.5083    20088    0.43%
    959   961  4981238.9675   223  4960690.8308  4981965.5083    20091    0.43%
    961   963  4981213.8388   224  4960690.8308  4981965.5083    20094    0.43%
    971   973  4981818.7334   228  4960690.8308  4981965.5083    20107    0.43%
    972   974  4981152.0207   225  4960690.8308  4981965.5083    20108    0.43%
Elapsed time = 24.20 sec. (13593.81 ticks, tree = 5.06 MB, solutions = 10)
*   974+  974                      4960752.3649  4981965.5083             0.43%
*   977+  977                      4960782.0489  4981965.5083             0.43%
*   979+  979                      4961133.6734  4981965.5083             0.42%
*   991+  991                      4961250.6028  4981965.5083             0.42%
   1216  1218  4981493.7302   225  4961250.6028  4981965.5083    20629    0.42%
   1236  1238  4981485.2873   226  4961250.6028  4981965.5083    20683    0.42%
   1256  1258  4981486.2775   225  4961250.6028  4981965.5083    20746    0.42%
   1257  1259  4981226.4961   223  4961250.6028  4981965.5083    20747    0.42%
   1266  1268  4981214.4382   226  4961250.6028  4981965.5083    20771    0.42%
   1276  1278  4981477.8346   226  4961250.6028  4981965.5083    20797    0.42%
   1277  1279  4981218.0532   224  4961250.6028  4981965.5083    20802    0.42%
   1286  1288  4981215.4284   225  4961250.6028  4981965.5083    20830    0.42%
   1296  1298  4981483.6567   223  4961250.6028  4981965.5083    20863    0.42%
   1297  1299  4981219.0434   223  4961250.6028  4981965.5083    20864    0.42%
Elapsed time = 26.87 sec. (14769.25 ticks, tree = 11.33 MB, solutions = 14)
   1634  1636  4980982.2602   222  4961250.6028  4981965.5083    21708    0.42%
   1654  1656  4981089.0076   222  4961250.6028  4981965.5083    21758    0.42%
   1674  1676  4980982.1461   222  4961250.6028  4981965.5083    21803    0.42%
   1694  1696  4981087.3788   221  4961250.6028  4981965.5083    21852    0.42%
   1704  1706  4981405.9169   222  4961250.6028  4981965.5083    21872    0.42%
   1706  1708  4981195.3869   220  4961250.6028  4981965.5083    21874    0.42%
   1714  1716  4981018.8186   221  4961250.6028  4981965.5083    21893    0.42%
   1724  1726  4981337.3568   222  4961250.6028  4981965.5083    21922    0.42%
   1725  1727  4981340.0465   222  4961250.6028  4981965.5083    21923    0.42%
   1726  1728  4981126.8268   220  4961250.6028  4981965.5083    21924    0.42%
Elapsed time = 30.31 sec. (15768.10 ticks, tree = 23.47 MB, solutions = 14)
   2140  2142  4978465.2580   214  4961250.6028  4981965.5083    23183    0.42%
   2160  2162  4978530.9502   213  4961250.6028  4981965.5083    23242    0.42%
   2166  2168  4980561.7775   218  4961250.6028  4981965.5083    23263    0.42%
   2167  2169  4981156.9647   223  4961250.6028  4981965.5083    23268    0.42%
   2171  2173  4980521.0321   219  4961250.6028  4981965.5083    23279    0.42%
   2180  2182  4978529.7768   213  4961250.6028  4981965.5083    23311    0.42%
   2185  2187  4980455.0858   220  4961250.6028  4981965.5083    23325    0.42%
   2186  2188  4980435.6671   219  4961250.6028  4981965.5083    23327    0.42%
   2187  2189  4981079.5773   223  4961250.6028  4981965.5083    23328    0.42%
   2189  2191  4980366.0625   219  4961250.6028  4981965.5083    23338    0.42%
Elapsed time = 34.55 sec. (17177.10 ticks, tree = 40.20 MB, solutions = 14)
   2677  2679  4980168.2378   217  4961250.6028  4981965.5083    24762    0.42%
   2686  2688  4979858.4279   216  4961250.6028  4981965.5083    24790    0.42%
   2704  2706  4979917.4591   217  4961250.6028  4981965.5083    24839    0.42%
   2706  2708  4979252.6943   215  4961250.6028  4981965.5083    24844    0.42%
   2707  2709  4979775.4249   217  4961250.6028  4981965.5083    24845    0.42%
   2709  2711  4979633.5728   216  4961250.6028  4981965.5083    24854    0.42%
   2710  2712  4979481.0302   217  4961250.6028  4981965.5083    24855    0.42%
   2716  2718  4977889.8073   213  4961250.6028  4981965.5083    24874    0.42%
   2718  2720  4978254.9737   213  4961250.6028  4981965.5083    24881    0.42%
   2722  2724  4979917.0888   217  4961250.6028  4981965.5083    24885    0.42%
Elapsed time = 37.48 sec. (18176.00 ticks, tree = 40.20 MB, solutions = 14)
   3229  3231  4979798.6091   217  4961250.6028  4981965.5083    26283    0.42%
   3248  3250  4979468.3914   216  4961250.6028  4981965.5083    26331    0.42%
   3249  3251  4979754.5361   219  4961250.6028  4981965.5083    26333    0.42%
   3253  3255  4979302.8987   216  4961250.6028  4981965.5083    26347    0.42%
   3257  3259  4979389.4419   215  4961250.6028  4981965.5083    26360    0.42%
   3261  3263  4978978.0951   214  4961250.6028  4981965.5083    26374    0.42%
   3268  3270  4979445.6140   216  4961250.6028  4981965.5083    26399    0.42%
   3269  3271  4979794.6625   217  4961250.6028  4981965.5083    26402    0.42%
   3271  3273  4978845.7057   214  4961250.6028  4981965.5083    26406    0.42%
   3273  3275  4979315.6429   216  4961250.6028  4981965.5083    26410    0.42%
Elapsed time = 41.26 sec. (19192.09 ticks, tree = 60.05 MB, solutions = 14)
   3829  3831  4979309.6023   214  4961250.6028  4981965.5083    27848    0.42%
   3834  3836  4978361.8050   210  4961250.6028  4981965.5083    27859    0.42%
   3836  3838  4978104.6676   209  4961250.6028  4981965.5083    27869    0.42%
   3848  3850  4978559.9465   211  4961250.6028  4981965.5083    27907    0.42%
   3849  3851  4979082.6222   213  4961250.6028  4981965.5083    27911    0.42%
   3853  3855  4978403.7274   211  4961250.6028  4981965.5083    27917    0.42%
   3854  3856  4978348.3011   210  4961250.6028  4981965.5083    27920    0.42%
   3856  3858  4978288.0375   211  4961250.6028  4981965.5083    27924    0.42%
   3857  3859  4978314.4803   209  4961250.6028  4981965.5083    27927    0.42%
*  4539+ 4539                      4961317.5690  4981965.5083             0.42%
   4580  4582  4975575.2359   183  4961317.5690  4981965.5083    29923    0.42%
Elapsed time = 51.82 sec. (23101.99 ticks, tree = 94.93 MB, solutions = 14)
*  4739+ 4739                      4961451.7752  4981965.5083             0.41%
*  4739+ 4739                      4961512.6427  4981965.5083             0.41%
*  5019+ 5019                      4961970.1557  4981965.5083             0.40%
*  5019+ 5019                      4961986.4455  4981965.5083             0.40%
*  5019+ 5019                      4962008.3220  4981965.5083             0.40%
   5019  5021  4976224.3133   184  4962008.3220  4981965.5083    30904    0.40%
   5020  5022  4977155.5244   185  4962008.3220  4981965.5083    30905    0.40%
*  5021+ 5021                      4962096.6639  4981965.5083             0.40%
   5021  5023  4976704.1020   176  4962096.6639  4981965.5083    30907    0.40%
   5022  5024  4977312.3666   184  4962096.6639  4981965.5083    30908    0.40%
*  5023+ 5023                      4962100.5938  4981965.5083             0.40%
*  5023+ 5023                      4962125.5267  4981965.5083             0.40%
*  5023+ 5023                      4962168.2902  4981965.5083             0.40%
   5023  5025  4976859.6971   174  4962168.2902  4981965.5083    30910    0.40%
   5024  5026  4975875.0619   169  4962168.2902  4981965.5083    30913    0.40%
   5025  5027  4976646.1137   181  4962168.2902  4981965.5083    30914    0.40%
   5026  5028  4976563.7941   181  4962168.2902  4981965.5083    30915    0.40%
   5027  5029  4976586.2362   192  4962168.2902  4981965.5083    30920    0.40%
*  5028+ 5028                      4962189.0882  4981965.5083             0.40%
*  5028+ 5028                      4962210.9648  4981965.5083             0.40%
*  5028+ 5028                      4962235.8977  4981965.5083             0.40%
   5028  5030  4976588.1496   176  4962235.8977  4981965.5083    30922    0.40%
Elapsed time = 78.74 sec. (35314.33 ticks, tree = 232.99 MB, solutions = 17)
*  5039+ 3360                      4963628.6887  4964830.6471             0.02%
*  5039+ 2240                      4964510.5772  4964572.0473             0.00%

Implied bound cuts applied:  162
Flow cuts applied:  76
Mixed integer rounding cuts applied:  5467
Lift and project cuts applied:  62
Gomory fractional cuts applied:  261

Root node processing (before b&c):
  Real time             =   13.32 sec. (9363.50 ticks)
Parallel b&c, 20 threads:
  Real time             =   92.34 sec. (58154.75 ticks)
  Sync time (average)   =   11.28 sec.
  Wait time (average)   =   12.18 sec.
                          ------------
Total (root+branch&cut) =  105.65 sec. (67518.25 ticks)
MKLROOT=/global/software/sl-6.x86_64/modules/langs/intel/2015.6.233/mkl
SLURM_NODELIST=n0120.savio1
SLURM_CHECKPOINT_IMAGE_DIR=/var/slurm/checkpoint
MANPATH=/global/software/sl-6.x86_64/modules/langs/julia/0.5.0/share/man:/global/software/sl-6.x86_64/modules/langs/intel/2015.6.233/man/en_US:/global/software/sl-6.x86_64/modules/langs/gcc/4.8.5/share/man:/usr/share/man
SLURM_JOB_NAME=aggregator
HOSTNAME=n0120.savio1
SLURM_NTASKS_PER_NODE=1
SLURM_TOPOLOGY_ADDR=ib-savio.ib-savio-05.n0120.savio1
SLURMD_NODENAME=n0120.savio1
SLURM_PRIO_PROCESS=0
SLURM_NODE_ALIASES=(null)
TERM=xterm-256color
SHELL=/bin/bash
HISTSIZE=1000
SLURM_JOB_QOS=savio_normal
SSH_CLIENT=128.32.156.166 53087 22
SLURM_TOPOLOGY_ADDR_PATTERN=switch.switch.node
TMPDIR=/tmp
LIBRARY_PATH=/global/software/sl-6.x86_64/modules/langs/julia/0.5.0/lib/julia:/global/software/sl-6.x86_64/modules/langs/intel/2015.6.233/mkl/lib/intel64:/global/software/sl-6.x86_64/modules/langs/gcc/4.8.5/lib64:/global/software/sl-6.x86_64/modules/langs/gcc/4.8.5/lib
GCC_DIR=/global/software/sl-6.x86_64/modules/langs/gcc/4.8.5
FPATH=/global/software/sl-6.x86_64/modules/langs/intel/2015.6.233/mkl/include/fftw:/global/software/sl-6.x86_64/modules/langs/intel/2015.6.233/mkl/include
SSH_TTY=/dev/pts/23
USER=jdlara
SLURM_NNODES=1
LD_LIBRARY_PATH=/global/software/sl-6.x86_64/modules/langs/julia/0.5.0/lib/julia:/global/software/sl-6.x86_64/modules/langs/intel/2015.6.233/mkl/lib/intel64:/global/software/sl-6.x86_64/modules/langs/gcc/4.8.5/lib64:/global/software/sl-6.x86_64/modules/langs/gcc/4.8.5/lib:/global/home/users/jdlara/gurobi652/linux64/lib
LS_COLORS=rs=0:di=38;5;27:ln=38;5;51:mh=44;38;5;15:pi=40;38;5;11:so=38;5;13:do=38;5;5:bd=48;5;232;38;5;11:cd=48;5;232;38;5;3:or=48;5;232;38;5;9:mi=05;48;5;232;38;5;15:su=48;5;196;38;5;15:sg=48;5;11;38;5;16:ca=48;5;196;38;5;226:tw=48;5;10;38;5;16:ow=48;5;10;38;5;21:st=48;5;21;38;5;15:ex=38;5;34:*.tar=38;5;9:*.tgz=38;5;9:*.arj=38;5;9:*.taz=38;5;9:*.lzh=38;5;9:*.lzma=38;5;9:*.tlz=38;5;9:*.txz=38;5;9:*.zip=38;5;9:*.z=38;5;9:*.Z=38;5;9:*.dz=38;5;9:*.gz=38;5;9:*.lz=38;5;9:*.xz=38;5;9:*.bz2=38;5;9:*.tbz=38;5;9:*.tbz2=38;5;9:*.bz=38;5;9:*.tz=38;5;9:*.deb=38;5;9:*.rpm=38;5;9:*.jar=38;5;9:*.rar=38;5;9:*.ace=38;5;9:*.zoo=38;5;9:*.cpio=38;5;9:*.7z=38;5;9:*.rz=38;5;9:*.jpg=38;5;13:*.jpeg=38;5;13:*.gif=38;5;13:*.bmp=38;5;13:*.pbm=38;5;13:*.pgm=38;5;13:*.ppm=38;5;13:*.tga=38;5;13:*.xbm=38;5;13:*.xpm=38;5;13:*.tif=38;5;13:*.tiff=38;5;13:*.png=38;5;13:*.svg=38;5;13:*.svgz=38;5;13:*.mng=38;5;13:*.pcx=38;5;13:*.mov=38;5;13:*.mpg=38;5;13:*.mpeg=38;5;13:*.m2v=38;5;13:*.mkv=38;5;13:*.ogm=38;5;13:*.mp4=38;5;13:*.m4v=38;5;13:*.mp4v=38;5;13:*.vob=38;5;13:*.qt=38;5;13:*.nuv=38;5;13:*.wmv=38;5;13:*.asf=38;5;13:*.rm=38;5;13:*.rmvb=38;5;13:*.flc=38;5;13:*.avi=38;5;13:*.fli=38;5;13:*.flv=38;5;13:*.gl=38;5;13:*.dl=38;5;13:*.xcf=38;5;13:*.xwd=38;5;13:*.yuv=38;5;13:*.cgm=38;5;13:*.emf=38;5;13:*.axv=38;5;13:*.anx=38;5;13:*.ogv=38;5;13:*.ogx=38;5;13:*.aac=38;5;45:*.au=38;5;45:*.flac=38;5;45:*.mid=38;5;45:*.midi=38;5;45:*.mka=38;5;45:*.mp3=38;5;45:*.mpc=38;5;45:*.ogg=38;5;45:*.ra=38;5;45:*.wav=38;5;45:*.axa=38;5;45:*.oga=38;5;45:*.spx=38;5;45:*.xspf=38;5;45:
CPATH=/global/software/sl-6.x86_64/modules/langs/julia/0.5.0/include:/global/software/sl-6.x86_64/modules/langs/intel/2015.6.233/mkl/include/fftw:/global/software/sl-6.x86_64/modules/langs/intel/2015.6.233/mkl/include:/global/software/sl-6.x86_64/modules/langs/gcc/4.8.5/include
SLURM_JOBID=1277267
SLURM_NTASKS=1
NLSPATH=/global/software/sl-6.x86_64/modules/langs/intel/2015.6.233/mkl/lib/intel64/locale/en_US
MAIL=/var/spool/mail/jdlara
PATH=/global/software/sl-6.x86_64/modules/langs/julia/0.5.0/bin:/global/software/sl-6.x86_64/modules/langs/gcc/4.8.5/bin:/usr/local/bin:/bin:/usr/bin:/usr/local/sbin:/usr/sbin:/sbin:/global/home/groups/allhands/bin:/global/home/users/jdlara/gurobi652/linux64/bin:/global/home/users/jdlara/bin:/global/home/users/jdlara/gurobi652/linux64/bin
SLURM_TASKS_PER_NODE=20
SLURM_CPUS_PER_TASK=1
SLURM_JOB_ID=1277267
PWD=/global/home/users/jdlara/Julia_testcodes/aggregator_model/Multiple_fleet
SLURM_JOB_USER=jdlara
_LMFILES_=/global/software/sl-6.x86_64/modfiles/langs/gcc/4.8.5:/global/software/sl-6.x86_64/modfiles/gcc/4.8.5/mkl/2015.6.233:/global/software/sl-6.x86_64/modfiles/langs/julia/0.5.0
CUDA_VISIBLE_DEVICES=NoDevFiles
MODULEPATH=/global/software/sl-6.x86_64/modfiles/tools:/global/software/sl-6.x86_64/modfiles/langs:/global/software/sl-6.x86_64/modfiles/julia/0.5.0:/global/software/sl-6.x86_64/modfiles/gcc/4.8.5
LOADEDMODULES=gcc/4.8.5:mkl/2015.6.233:julia/0.5.0
SLURM_JOB_UID=42745
SLURM_NODEID=0
SLURM_SUBMIT_DIR=/global/home/users/jdlara/Julia_testcodes/aggregator_model/Multiple_fleet
SLURM_NPROCS=1
SLURM_TASK_PID=108129
LM_LICENSE_FILE=28518@lmgr0.hpcs.lbl.gov
SLURM_CPUS_ON_NODE=20
JULIA_DIR=/global/software/sl-6.x86_64/modules/langs/julia/0.5.0
ALLHANDS_BASHRC=1
HISTCONTROL=ignoredups
ENVIRONMENT=BATCH
SLURM_PROCID=0
MKL_DIR=/global/software/sl-6.x86_64/modules/langs/intel/2015.6.233/mkl
SLURM_JOB_NODELIST=n0120.savio1
SHLVL=3
HOME=/global/home/users/jdlara
SLURM_LOCALID=0
SLURM_CLUSTER_NAME=brc
SLURM_JOB_CPUS_PER_NODE=20
SLURM_SUBMIT_HOST=n0120.savio1
SLURM_GTIDS=0
SLURM_JOB_PARTITION=savio
LOGNAME=jdlara
CVS_RSH=ssh
SSH_CONNECTION=128.32.156.166 53087 10.0.0.22 22
SLURM_JOB_ACCOUNT=fc_emac
GPU_DEVICE_ORDINAL=NoDevFiles
MODULESHOME=/usr/Modules
SLURM_JOB_NUM_NODES=1
LESSOPEN=||/usr/bin/lesspipe.sh %s
INFOPATH=/global/software/sl-6.x86_64/modules/langs/gcc/4.8.5/share/info
INCLUDE=/global/software/sl-6.x86_64/modules/langs/julia/0.5.0/include:/global/software/sl-6.x86_64/modules/langs/intel/2015.6.233/mkl/include/fftw:/global/software/sl-6.x86_64/modules/langs/intel/2015.6.233/mkl/include:/global/software/sl-6.x86_64/modules/langs/gcc/4.8.5/include
G_BROKEN_FILENAMES=1
SLURM_MEM_PER_NODE=64000
BASH_FUNC_module()=() {  logger "$HOSTNAME $USER: module $*";
 eval `/usr/Modules/bin/modulecmd bash $*`
}
_=/bin/env
